c CNF file corresponding to a (partial) station packing problem.
p cnf 3639 229
1 2 3 4 5 6 7 8 9 10 11 12 13 14 0
-1 -2 0
-1 -3 0
-1 -4 0
-1 -5 0
-1 -6 0
-1 -7 0
-1 -8 0
-1 -9 0
-1 -10 0
-1 -11 0
-1 -12 0
-1 -13 0
-1 -14 0
-2 -3 0
-2 -4 0
-2 -5 0
-2 -6 0
-2 -7 0
-2 -8 0
-2 -9 0
-2 -10 0
-2 -11 0
-2 -12 0
-2 -13 0
-2 -14 0
-3 -4 0
-3 -5 0
-3 -6 0
-3 -7 0
-3 -8 0
-3 -9 0
-3 -10 0
-3 -11 0
-3 -12 0
-3 -13 0
-3 -14 0
-4 -5 0
-4 -6 0
-4 -7 0
-4 -8 0
-4 -9 0
-4 -10 0
-4 -11 0
-4 -12 0
-4 -13 0
-4 -14 0
-5 -6 0
-5 -7 0
-5 -8 0
-5 -9 0
-5 -10 0
-5 -11 0
-5 -12 0
-5 -13 0
-5 -14 0
-6 -7 0
-6 -8 0
-6 -9 0
-6 -10 0
-6 -11 0
-6 -12 0
-6 -13 0
-6 -14 0
-7 -8 0
-7 -9 0
-7 -10 0
-7 -11 0
-7 -12 0
-7 -13 0
-7 -14 0
-8 -9 0
-8 -10 0
-8 -11 0
-8 -12 0
-8 -13 0
-8 -14 0
-9 -10 0
-9 -11 0
-9 -12 0
-9 -13 0
-9 -14 0
-10 -11 0
-10 -12 0
-10 -13 0
-10 -14 0
-11 -12 0
-11 -13 0
-11 -14 0
-12 -13 0
-12 -14 0
-13 -14 0
3623 3624 3625 3626 3627 3628 3629 3630 3631 3632 3633 3634 3635 3636 3637 3638 3639 0
-3623 -3624 0
-3623 -3625 0
-3623 -3626 0
-3623 -3627 0
-3623 -3628 0
-3623 -3629 0
-3623 -3630 0
-3623 -3631 0
-3623 -3632 0
-3623 -3633 0
-3623 -3634 0
-3623 -3635 0
-3623 -3636 0
-3623 -3637 0
-3623 -3638 0
-3623 -3639 0
-3624 -3625 0
-3624 -3626 0
-3624 -3627 0
-3624 -3628 0
-3624 -3629 0
-3624 -3630 0
-3624 -3631 0
-3624 -3632 0
-3624 -3633 0
-3624 -3634 0
-3624 -3635 0
-3624 -3636 0
-3624 -3637 0
-3624 -3638 0
-3624 -3639 0
-3625 -3626 0
-3625 -3627 0
-3625 -3628 0
-3625 -3629 0
-3625 -3630 0
-3625 -3631 0
-3625 -3632 0
-3625 -3633 0
-3625 -3634 0
-3625 -3635 0
-3625 -3636 0
-3625 -3637 0
-3625 -3638 0
-3625 -3639 0
-3626 -3627 0
-3626 -3628 0
-3626 -3629 0
-3626 -3630 0
-3626 -3631 0
-3626 -3632 0
-3626 -3633 0
-3626 -3634 0
-3626 -3635 0
-3626 -3636 0
-3626 -3637 0
-3626 -3638 0
-3626 -3639 0
-3627 -3628 0
-3627 -3629 0
-3627 -3630 0
-3627 -3631 0
-3627 -3632 0
-3627 -3633 0
-3627 -3634 0
-3627 -3635 0
-3627 -3636 0
-3627 -3637 0
-3627 -3638 0
-3627 -3639 0
-3628 -3629 0
-3628 -3630 0
-3628 -3631 0
-3628 -3632 0
-3628 -3633 0
-3628 -3634 0
-3628 -3635 0
-3628 -3636 0
-3628 -3637 0
-3628 -3638 0
-3628 -3639 0
-3629 -3630 0
-3629 -3631 0
-3629 -3632 0
-3629 -3633 0
-3629 -3634 0
-3629 -3635 0
-3629 -3636 0
-3629 -3637 0
-3629 -3638 0
-3629 -3639 0
-3630 -3631 0
-3630 -3632 0
-3630 -3633 0
-3630 -3634 0
-3630 -3635 0
-3630 -3636 0
-3630 -3637 0
-3630 -3638 0
-3630 -3639 0
-3631 -3632 0
-3631 -3633 0
-3631 -3634 0
-3631 -3635 0
-3631 -3636 0
-3631 -3637 0
-3631 -3638 0
-3631 -3639 0
-3632 -3633 0
-3632 -3634 0
-3632 -3635 0
-3632 -3636 0
-3632 -3637 0
-3632 -3638 0
-3632 -3639 0
-3633 -3634 0
-3633 -3635 0
-3633 -3636 0
-3633 -3637 0
-3633 -3638 0
-3633 -3639 0
-3634 -3635 0
-3634 -3636 0
-3634 -3637 0
-3634 -3638 0
-3634 -3639 0
-3635 -3636 0
-3635 -3637 0
-3635 -3638 0
-3635 -3639 0
-3636 -3637 0
-3636 -3638 0
-3636 -3639 0
-3637 -3638 0
-3637 -3639 0
-3638 -3639 0
